c
c Generated WCNF file
c
p wcnf 379 1810 60782
60782 28 0
60782 -29 1 0
60782 -29 2 0
60782 29 -1 -2 0
60782 -30 1 0
60782 -30 3 0
60782 30 -1 -3 0
60782 -31 1 0
60782 -31 4 0
60782 31 -1 -4 0
60782 -32 1 0
60782 -32 5 0
60782 32 -1 -5 0
60782 -33 1 0
60782 -33 6 0
60782 33 -1 -6 0
60782 -34 1 0
60782 -34 7 0
60782 34 -1 -7 0
60782 -35 1 0
60782 -35 8 0
60782 35 -1 -8 0
60782 -36 1 0
60782 -36 9 0
60782 36 -1 -9 0
60782 -37 1 0
60782 -37 10 0
60782 37 -1 -10 0
60782 -38 1 0
60782 -38 11 0
60782 38 -1 -11 0
60782 -39 1 0
60782 -39 12 0
60782 39 -1 -12 0
60782 -40 1 0
60782 -40 13 0
60782 40 -1 -13 0
60782 -41 1 0
60782 -41 14 0
60782 41 -1 -14 0
60782 -42 1 0
60782 -42 15 0
60782 42 -1 -15 0
60782 -43 1 0
60782 -43 16 0
60782 43 -1 -16 0
60782 -44 1 0
60782 -44 17 0
60782 44 -1 -17 0
60782 -45 1 0
60782 -45 18 0
60782 45 -1 -18 0
60782 -46 1 0
60782 -46 19 0
60782 46 -1 -19 0
60782 -47 1 0
60782 -47 20 0
60782 47 -1 -20 0
60782 -48 1 0
60782 -48 21 0
60782 48 -1 -21 0
60782 -49 1 0
60782 -49 22 0
60782 49 -1 -22 0
60782 -50 1 0
60782 -50 23 0
60782 50 -1 -23 0
60782 -51 1 0
60782 -51 24 0
60782 51 -1 -24 0
60782 -52 1 0
60782 -52 25 0
60782 52 -1 -25 0
60782 -53 1 0
60782 -53 26 0
60782 53 -1 -26 0
60782 -54 1 0
60782 -54 27 0
60782 54 -1 -27 0
60782 -55 2 0
60782 -55 3 0
60782 55 -2 -3 0
60782 -56 2 0
60782 -56 4 0
60782 56 -2 -4 0
60782 -57 2 0
60782 -57 5 0
60782 57 -2 -5 0
60782 -58 2 0
60782 -58 6 0
60782 58 -2 -6 0
60782 -59 2 0
60782 -59 7 0
60782 59 -2 -7 0
60782 -60 2 0
60782 -60 8 0
60782 60 -2 -8 0
60782 -61 2 0
60782 -61 9 0
60782 61 -2 -9 0
60782 -62 2 0
60782 -62 10 0
60782 62 -2 -10 0
60782 -63 2 0
60782 -63 11 0
60782 63 -2 -11 0
60782 -64 2 0
60782 -64 12 0
60782 64 -2 -12 0
60782 -65 2 0
60782 -65 13 0
60782 65 -2 -13 0
60782 -66 2 0
60782 -66 14 0
60782 66 -2 -14 0
60782 -67 2 0
60782 -67 15 0
60782 67 -2 -15 0
60782 -68 2 0
60782 -68 16 0
60782 68 -2 -16 0
60782 -69 2 0
60782 -69 17 0
60782 69 -2 -17 0
60782 -70 2 0
60782 -70 18 0
60782 70 -2 -18 0
60782 -71 2 0
60782 -71 19 0
60782 71 -2 -19 0
60782 -72 2 0
60782 -72 20 0
60782 72 -2 -20 0
60782 -73 2 0
60782 -73 21 0
60782 73 -2 -21 0
60782 -74 2 0
60782 -74 22 0
60782 74 -2 -22 0
60782 -75 2 0
60782 -75 23 0
60782 75 -2 -23 0
60782 -76 2 0
60782 -76 24 0
60782 76 -2 -24 0
60782 -77 2 0
60782 -77 25 0
60782 77 -2 -25 0
60782 -78 2 0
60782 -78 26 0
60782 78 -2 -26 0
60782 -79 2 0
60782 -79 27 0
60782 79 -2 -27 0
60782 -80 3 0
60782 -80 4 0
60782 80 -3 -4 0
60782 -81 3 0
60782 -81 5 0
60782 81 -3 -5 0
60782 -82 3 0
60782 -82 6 0
60782 82 -3 -6 0
60782 -83 3 0
60782 -83 7 0
60782 83 -3 -7 0
60782 -84 3 0
60782 -84 8 0
60782 84 -3 -8 0
60782 -85 3 0
60782 -85 9 0
60782 85 -3 -9 0
60782 -86 3 0
60782 -86 10 0
60782 86 -3 -10 0
60782 -87 3 0
60782 -87 11 0
60782 87 -3 -11 0
60782 -88 3 0
60782 -88 12 0
60782 88 -3 -12 0
60782 -89 3 0
60782 -89 13 0
60782 89 -3 -13 0
60782 -90 3 0
60782 -90 14 0
60782 90 -3 -14 0
60782 -91 3 0
60782 -91 15 0
60782 91 -3 -15 0
60782 -92 3 0
60782 -92 16 0
60782 92 -3 -16 0
60782 -93 3 0
60782 -93 17 0
60782 93 -3 -17 0
60782 -94 3 0
60782 -94 18 0
60782 94 -3 -18 0
60782 -95 3 0
60782 -95 19 0
60782 95 -3 -19 0
60782 -96 3 0
60782 -96 20 0
60782 96 -3 -20 0
60782 -97 3 0
60782 -97 21 0
60782 97 -3 -21 0
60782 -98 3 0
60782 -98 22 0
60782 98 -3 -22 0
60782 -99 3 0
60782 -99 23 0
60782 99 -3 -23 0
60782 -100 3 0
60782 -100 24 0
60782 100 -3 -24 0
60782 -101 3 0
60782 -101 25 0
60782 101 -3 -25 0
60782 -102 3 0
60782 -102 26 0
60782 102 -3 -26 0
60782 -103 3 0
60782 -103 27 0
60782 103 -3 -27 0
60782 -104 4 0
60782 -104 5 0
60782 104 -4 -5 0
60782 -105 4 0
60782 -105 6 0
60782 105 -4 -6 0
60782 -106 4 0
60782 -106 7 0
60782 106 -4 -7 0
60782 -107 4 0
60782 -107 8 0
60782 107 -4 -8 0
60782 -108 4 0
60782 -108 9 0
60782 108 -4 -9 0
60782 -109 4 0
60782 -109 10 0
60782 109 -4 -10 0
60782 -110 4 0
60782 -110 11 0
60782 110 -4 -11 0
60782 -111 4 0
60782 -111 12 0
60782 111 -4 -12 0
60782 -112 4 0
60782 -112 13 0
60782 112 -4 -13 0
60782 -113 4 0
60782 -113 14 0
60782 113 -4 -14 0
60782 -114 4 0
60782 -114 15 0
60782 114 -4 -15 0
60782 -115 4 0
60782 -115 16 0
60782 115 -4 -16 0
60782 -116 4 0
60782 -116 17 0
60782 116 -4 -17 0
60782 -117 4 0
60782 -117 18 0
60782 117 -4 -18 0
60782 -118 4 0
60782 -118 19 0
60782 118 -4 -19 0
60782 -119 4 0
60782 -119 20 0
60782 119 -4 -20 0
60782 -120 4 0
60782 -120 21 0
60782 120 -4 -21 0
60782 -121 4 0
60782 -121 22 0
60782 121 -4 -22 0
60782 -122 4 0
60782 -122 23 0
60782 122 -4 -23 0
60782 -123 4 0
60782 -123 24 0
60782 123 -4 -24 0
60782 -124 4 0
60782 -124 25 0
60782 124 -4 -25 0
60782 -125 4 0
60782 -125 26 0
60782 125 -4 -26 0
60782 -126 4 0
60782 -126 27 0
60782 126 -4 -27 0
60782 -127 5 0
60782 -127 6 0
60782 127 -5 -6 0
60782 -128 5 0
60782 -128 7 0
60782 128 -5 -7 0
60782 -129 5 0
60782 -129 8 0
60782 129 -5 -8 0
60782 -130 5 0
60782 -130 9 0
60782 130 -5 -9 0
60782 -131 5 0
60782 -131 10 0
60782 131 -5 -10 0
60782 -132 5 0
60782 -132 11 0
60782 132 -5 -11 0
60782 -133 5 0
60782 -133 12 0
60782 133 -5 -12 0
60782 -134 5 0
60782 -134 13 0
60782 134 -5 -13 0
60782 -135 5 0
60782 -135 14 0
60782 135 -5 -14 0
60782 -136 5 0
60782 -136 15 0
60782 136 -5 -15 0
60782 -137 5 0
60782 -137 16 0
60782 137 -5 -16 0
60782 -138 5 0
60782 -138 17 0
60782 138 -5 -17 0
60782 -139 5 0
60782 -139 18 0
60782 139 -5 -18 0
60782 -140 5 0
60782 -140 19 0
60782 140 -5 -19 0
60782 -141 5 0
60782 -141 20 0
60782 141 -5 -20 0
60782 -142 5 0
60782 -142 21 0
60782 142 -5 -21 0
60782 -143 5 0
60782 -143 22 0
60782 143 -5 -22 0
60782 -144 5 0
60782 -144 23 0
60782 144 -5 -23 0
60782 -145 5 0
60782 -145 24 0
60782 145 -5 -24 0
60782 -146 5 0
60782 -146 25 0
60782 146 -5 -25 0
60782 -147 5 0
60782 -147 26 0
60782 147 -5 -26 0
60782 -148 5 0
60782 -148 27 0
60782 148 -5 -27 0
60782 -149 6 0
60782 -149 7 0
60782 149 -6 -7 0
60782 -150 6 0
60782 -150 8 0
60782 150 -6 -8 0
60782 -151 6 0
60782 -151 9 0
60782 151 -6 -9 0
60782 -152 6 0
60782 -152 10 0
60782 152 -6 -10 0
60782 -153 6 0
60782 -153 11 0
60782 153 -6 -11 0
60782 -154 6 0
60782 -154 12 0
60782 154 -6 -12 0
60782 -155 6 0
60782 -155 13 0
60782 155 -6 -13 0
60782 -156 6 0
60782 -156 14 0
60782 156 -6 -14 0
60782 -157 6 0
60782 -157 15 0
60782 157 -6 -15 0
60782 -158 6 0
60782 -158 16 0
60782 158 -6 -16 0
60782 -159 6 0
60782 -159 17 0
60782 159 -6 -17 0
60782 -160 6 0
60782 -160 18 0
60782 160 -6 -18 0
60782 -161 6 0
60782 -161 19 0
60782 161 -6 -19 0
60782 -162 6 0
60782 -162 20 0
60782 162 -6 -20 0
60782 -163 6 0
60782 -163 21 0
60782 163 -6 -21 0
60782 -164 6 0
60782 -164 22 0
60782 164 -6 -22 0
60782 -165 6 0
60782 -165 23 0
60782 165 -6 -23 0
60782 -166 6 0
60782 -166 24 0
60782 166 -6 -24 0
60782 -167 6 0
60782 -167 25 0
60782 167 -6 -25 0
60782 -168 6 0
60782 -168 26 0
60782 168 -6 -26 0
60782 -169 6 0
60782 -169 27 0
60782 169 -6 -27 0
60782 -170 7 0
60782 -170 8 0
60782 170 -7 -8 0
60782 -171 7 0
60782 -171 9 0
60782 171 -7 -9 0
60782 -172 7 0
60782 -172 10 0
60782 172 -7 -10 0
60782 -173 7 0
60782 -173 11 0
60782 173 -7 -11 0
60782 -174 7 0
60782 -174 12 0
60782 174 -7 -12 0
60782 -175 7 0
60782 -175 13 0
60782 175 -7 -13 0
60782 -176 7 0
60782 -176 14 0
60782 176 -7 -14 0
60782 -177 7 0
60782 -177 15 0
60782 177 -7 -15 0
60782 -178 7 0
60782 -178 16 0
60782 178 -7 -16 0
60782 -179 7 0
60782 -179 17 0
60782 179 -7 -17 0
60782 -180 7 0
60782 -180 18 0
60782 180 -7 -18 0
60782 -181 7 0
60782 -181 19 0
60782 181 -7 -19 0
60782 -182 7 0
60782 -182 20 0
60782 182 -7 -20 0
60782 -183 7 0
60782 -183 21 0
60782 183 -7 -21 0
60782 -184 7 0
60782 -184 22 0
60782 184 -7 -22 0
60782 -185 7 0
60782 -185 23 0
60782 185 -7 -23 0
60782 -186 7 0
60782 -186 24 0
60782 186 -7 -24 0
60782 -187 7 0
60782 -187 25 0
60782 187 -7 -25 0
60782 -188 7 0
60782 -188 26 0
60782 188 -7 -26 0
60782 -189 7 0
60782 -189 27 0
60782 189 -7 -27 0
60782 -190 8 0
60782 -190 9 0
60782 190 -8 -9 0
60782 -191 8 0
60782 -191 10 0
60782 191 -8 -10 0
60782 -192 8 0
60782 -192 11 0
60782 192 -8 -11 0
60782 -193 8 0
60782 -193 12 0
60782 193 -8 -12 0
60782 -194 8 0
60782 -194 13 0
60782 194 -8 -13 0
60782 -195 8 0
60782 -195 14 0
60782 195 -8 -14 0
60782 -196 8 0
60782 -196 15 0
60782 196 -8 -15 0
60782 -197 8 0
60782 -197 16 0
60782 197 -8 -16 0
60782 -198 8 0
60782 -198 17 0
60782 198 -8 -17 0
60782 -199 8 0
60782 -199 18 0
60782 199 -8 -18 0
60782 -200 8 0
60782 -200 19 0
60782 200 -8 -19 0
60782 -201 8 0
60782 -201 20 0
60782 201 -8 -20 0
60782 -202 8 0
60782 -202 21 0
60782 202 -8 -21 0
60782 -203 8 0
60782 -203 22 0
60782 203 -8 -22 0
60782 -204 8 0
60782 -204 23 0
60782 204 -8 -23 0
60782 -205 8 0
60782 -205 24 0
60782 205 -8 -24 0
60782 -206 8 0
60782 -206 25 0
60782 206 -8 -25 0
60782 -207 8 0
60782 -207 26 0
60782 207 -8 -26 0
60782 -208 8 0
60782 -208 27 0
60782 208 -8 -27 0
60782 -209 9 0
60782 -209 10 0
60782 209 -9 -10 0
60782 -210 9 0
60782 -210 11 0
60782 210 -9 -11 0
60782 -211 9 0
60782 -211 12 0
60782 211 -9 -12 0
60782 -212 9 0
60782 -212 13 0
60782 212 -9 -13 0
60782 -213 9 0
60782 -213 14 0
60782 213 -9 -14 0
60782 -214 9 0
60782 -214 15 0
60782 214 -9 -15 0
60782 -215 9 0
60782 -215 16 0
60782 215 -9 -16 0
60782 -216 9 0
60782 -216 17 0
60782 216 -9 -17 0
60782 -217 9 0
60782 -217 18 0
60782 217 -9 -18 0
60782 -218 9 0
60782 -218 19 0
60782 218 -9 -19 0
60782 -219 9 0
60782 -219 20 0
60782 219 -9 -20 0
60782 -220 9 0
60782 -220 21 0
60782 220 -9 -21 0
60782 -221 9 0
60782 -221 22 0
60782 221 -9 -22 0
60782 -222 9 0
60782 -222 23 0
60782 222 -9 -23 0
60782 -223 9 0
60782 -223 24 0
60782 223 -9 -24 0
60782 -224 9 0
60782 -224 25 0
60782 224 -9 -25 0
60782 -225 9 0
60782 -225 26 0
60782 225 -9 -26 0
60782 -226 9 0
60782 -226 27 0
60782 226 -9 -27 0
60782 -227 10 0
60782 -227 11 0
60782 227 -10 -11 0
60782 -228 10 0
60782 -228 12 0
60782 228 -10 -12 0
60782 -229 10 0
60782 -229 13 0
60782 229 -10 -13 0
60782 -230 10 0
60782 -230 14 0
60782 230 -10 -14 0
60782 -231 10 0
60782 -231 15 0
60782 231 -10 -15 0
60782 -232 10 0
60782 -232 16 0
60782 232 -10 -16 0
60782 -233 10 0
60782 -233 17 0
60782 233 -10 -17 0
60782 -234 10 0
60782 -234 18 0
60782 234 -10 -18 0
60782 -235 10 0
60782 -235 19 0
60782 235 -10 -19 0
60782 -236 10 0
60782 -236 20 0
60782 236 -10 -20 0
60782 -237 10 0
60782 -237 21 0
60782 237 -10 -21 0
60782 -238 10 0
60782 -238 22 0
60782 238 -10 -22 0
60782 -239 10 0
60782 -239 23 0
60782 239 -10 -23 0
60782 -240 10 0
60782 -240 24 0
60782 240 -10 -24 0
60782 -241 10 0
60782 -241 25 0
60782 241 -10 -25 0
60782 -242 10 0
60782 -242 26 0
60782 242 -10 -26 0
60782 -243 10 0
60782 -243 27 0
60782 243 -10 -27 0
60782 -244 11 0
60782 -244 12 0
60782 244 -11 -12 0
60782 -245 11 0
60782 -245 13 0
60782 245 -11 -13 0
60782 -246 11 0
60782 -246 14 0
60782 246 -11 -14 0
60782 -247 11 0
60782 -247 15 0
60782 247 -11 -15 0
60782 -248 11 0
60782 -248 16 0
60782 248 -11 -16 0
60782 -249 11 0
60782 -249 17 0
60782 249 -11 -17 0
60782 -250 11 0
60782 -250 18 0
60782 250 -11 -18 0
60782 -251 11 0
60782 -251 19 0
60782 251 -11 -19 0
60782 -252 11 0
60782 -252 20 0
60782 252 -11 -20 0
60782 -253 11 0
60782 -253 21 0
60782 253 -11 -21 0
60782 -254 11 0
60782 -254 22 0
60782 254 -11 -22 0
60782 -255 11 0
60782 -255 23 0
60782 255 -11 -23 0
60782 -256 11 0
60782 -256 24 0
60782 256 -11 -24 0
60782 -257 11 0
60782 -257 25 0
60782 257 -11 -25 0
60782 -258 11 0
60782 -258 26 0
60782 258 -11 -26 0
60782 -259 11 0
60782 -259 27 0
60782 259 -11 -27 0
60782 -260 12 0
60782 -260 13 0
60782 260 -12 -13 0
60782 -261 12 0
60782 -261 14 0
60782 261 -12 -14 0
60782 -262 12 0
60782 -262 15 0
60782 262 -12 -15 0
60782 -263 12 0
60782 -263 16 0
60782 263 -12 -16 0
60782 -264 12 0
60782 -264 17 0
60782 264 -12 -17 0
60782 -265 12 0
60782 -265 18 0
60782 265 -12 -18 0
60782 -266 12 0
60782 -266 19 0
60782 266 -12 -19 0
60782 -267 12 0
60782 -267 20 0
60782 267 -12 -20 0
60782 -268 12 0
60782 -268 21 0
60782 268 -12 -21 0
60782 -269 12 0
60782 -269 22 0
60782 269 -12 -22 0
60782 -270 12 0
60782 -270 23 0
60782 270 -12 -23 0
60782 -271 12 0
60782 -271 24 0
60782 271 -12 -24 0
60782 -272 12 0
60782 -272 25 0
60782 272 -12 -25 0
60782 -273 12 0
60782 -273 26 0
60782 273 -12 -26 0
60782 -274 12 0
60782 -274 27 0
60782 274 -12 -27 0
60782 -275 13 0
60782 -275 14 0
60782 275 -13 -14 0
60782 -276 13 0
60782 -276 15 0
60782 276 -13 -15 0
60782 -277 13 0
60782 -277 16 0
60782 277 -13 -16 0
60782 -278 13 0
60782 -278 17 0
60782 278 -13 -17 0
60782 -279 13 0
60782 -279 18 0
60782 279 -13 -18 0
60782 -280 13 0
60782 -280 19 0
60782 280 -13 -19 0
60782 -281 13 0
60782 -281 20 0
60782 281 -13 -20 0
60782 -282 13 0
60782 -282 21 0
60782 282 -13 -21 0
60782 -283 13 0
60782 -283 22 0
60782 283 -13 -22 0
60782 -284 13 0
60782 -284 23 0
60782 284 -13 -23 0
60782 -285 13 0
60782 -285 24 0
60782 285 -13 -24 0
60782 -286 13 0
60782 -286 25 0
60782 286 -13 -25 0
60782 -287 13 0
60782 -287 26 0
60782 287 -13 -26 0
60782 -288 13 0
60782 -288 27 0
60782 288 -13 -27 0
60782 -289 14 0
60782 -289 15 0
60782 289 -14 -15 0
60782 -290 14 0
60782 -290 16 0
60782 290 -14 -16 0
60782 -291 14 0
60782 -291 17 0
60782 291 -14 -17 0
60782 -292 14 0
60782 -292 18 0
60782 292 -14 -18 0
60782 -293 14 0
60782 -293 19 0
60782 293 -14 -19 0
60782 -294 14 0
60782 -294 20 0
60782 294 -14 -20 0
60782 -295 14 0
60782 -295 21 0
60782 295 -14 -21 0
60782 -296 14 0
60782 -296 22 0
60782 296 -14 -22 0
60782 -297 14 0
60782 -297 23 0
60782 297 -14 -23 0
60782 -298 14 0
60782 -298 24 0
60782 298 -14 -24 0
60782 -299 14 0
60782 -299 25 0
60782 299 -14 -25 0
60782 -300 14 0
60782 -300 26 0
60782 300 -14 -26 0
60782 -301 14 0
60782 -301 27 0
60782 301 -14 -27 0
60782 -302 15 0
60782 -302 16 0
60782 302 -15 -16 0
60782 -303 15 0
60782 -303 17 0
60782 303 -15 -17 0
60782 -304 15 0
60782 -304 18 0
60782 304 -15 -18 0
60782 -305 15 0
60782 -305 19 0
60782 305 -15 -19 0
60782 -306 15 0
60782 -306 20 0
60782 306 -15 -20 0
60782 -307 15 0
60782 -307 21 0
60782 307 -15 -21 0
60782 -308 15 0
60782 -308 22 0
60782 308 -15 -22 0
60782 -309 15 0
60782 -309 23 0
60782 309 -15 -23 0
60782 -310 15 0
60782 -310 24 0
60782 310 -15 -24 0
60782 -311 15 0
60782 -311 25 0
60782 311 -15 -25 0
60782 -312 15 0
60782 -312 26 0
60782 312 -15 -26 0
60782 -313 15 0
60782 -313 27 0
60782 313 -15 -27 0
60782 -314 16 0
60782 -314 17 0
60782 314 -16 -17 0
60782 -315 16 0
60782 -315 18 0
60782 315 -16 -18 0
60782 -316 16 0
60782 -316 19 0
60782 316 -16 -19 0
60782 -317 16 0
60782 -317 20 0
60782 317 -16 -20 0
60782 -318 16 0
60782 -318 21 0
60782 318 -16 -21 0
60782 -319 16 0
60782 -319 22 0
60782 319 -16 -22 0
60782 -320 16 0
60782 -320 23 0
60782 320 -16 -23 0
60782 -321 16 0
60782 -321 24 0
60782 321 -16 -24 0
60782 -322 16 0
60782 -322 25 0
60782 322 -16 -25 0
60782 -323 16 0
60782 -323 26 0
60782 323 -16 -26 0
60782 -324 16 0
60782 -324 27 0
60782 324 -16 -27 0
60782 -325 17 0
60782 -325 18 0
60782 325 -17 -18 0
60782 -326 17 0
60782 -326 19 0
60782 326 -17 -19 0
60782 -327 17 0
60782 -327 20 0
60782 327 -17 -20 0
60782 -328 17 0
60782 -328 21 0
60782 328 -17 -21 0
60782 -329 17 0
60782 -329 22 0
60782 329 -17 -22 0
60782 -330 17 0
60782 -330 23 0
60782 330 -17 -23 0
60782 -331 17 0
60782 -331 24 0
60782 331 -17 -24 0
60782 -332 17 0
60782 -332 25 0
60782 332 -17 -25 0
60782 -333 17 0
60782 -333 26 0
60782 333 -17 -26 0
60782 -334 17 0
60782 -334 27 0
60782 334 -17 -27 0
60782 -335 18 0
60782 -335 19 0
60782 335 -18 -19 0
60782 -336 18 0
60782 -336 20 0
60782 336 -18 -20 0
60782 -337 18 0
60782 -337 21 0
60782 337 -18 -21 0
60782 -338 18 0
60782 -338 22 0
60782 338 -18 -22 0
60782 -339 18 0
60782 -339 23 0
60782 339 -18 -23 0
60782 -340 18 0
60782 -340 24 0
60782 340 -18 -24 0
60782 -341 18 0
60782 -341 25 0
60782 341 -18 -25 0
60782 -342 18 0
60782 -342 26 0
60782 342 -18 -26 0
60782 -343 18 0
60782 -343 27 0
60782 343 -18 -27 0
60782 -344 19 0
60782 -344 20 0
60782 344 -19 -20 0
60782 -345 19 0
60782 -345 21 0
60782 345 -19 -21 0
60782 -346 19 0
60782 -346 22 0
60782 346 -19 -22 0
60782 -347 19 0
60782 -347 23 0
60782 347 -19 -23 0
60782 -348 19 0
60782 -348 24 0
60782 348 -19 -24 0
60782 -349 19 0
60782 -349 25 0
60782 349 -19 -25 0
60782 -350 19 0
60782 -350 26 0
60782 350 -19 -26 0
60782 -351 19 0
60782 -351 27 0
60782 351 -19 -27 0
60782 -352 20 0
60782 -352 21 0
60782 352 -20 -21 0
60782 -353 20 0
60782 -353 22 0
60782 353 -20 -22 0
60782 -354 20 0
60782 -354 23 0
60782 354 -20 -23 0
60782 -355 20 0
60782 -355 24 0
60782 355 -20 -24 0
60782 -356 20 0
60782 -356 25 0
60782 356 -20 -25 0
60782 -357 20 0
60782 -357 26 0
60782 357 -20 -26 0
60782 -358 20 0
60782 -358 27 0
60782 358 -20 -27 0
60782 -359 21 0
60782 -359 22 0
60782 359 -21 -22 0
60782 -360 21 0
60782 -360 23 0
60782 360 -21 -23 0
60782 -361 21 0
60782 -361 24 0
60782 361 -21 -24 0
60782 -362 21 0
60782 -362 25 0
60782 362 -21 -25 0
60782 -363 21 0
60782 -363 26 0
60782 363 -21 -26 0
60782 -364 21 0
60782 -364 27 0
60782 364 -21 -27 0
60782 -365 22 0
60782 -365 23 0
60782 365 -22 -23 0
60782 -366 22 0
60782 -366 24 0
60782 366 -22 -24 0
60782 -367 22 0
60782 -367 25 0
60782 367 -22 -25 0
60782 -368 22 0
60782 -368 26 0
60782 368 -22 -26 0
60782 -369 22 0
60782 -369 27 0
60782 369 -22 -27 0
60782 -370 23 0
60782 -370 24 0
60782 370 -23 -24 0
60782 -371 23 0
60782 -371 25 0
60782 371 -23 -25 0
60782 -372 23 0
60782 -372 26 0
60782 372 -23 -26 0
60782 -373 23 0
60782 -373 27 0
60782 373 -23 -27 0
60782 -374 24 0
60782 -374 25 0
60782 374 -24 -25 0
60782 -375 24 0
60782 -375 26 0
60782 375 -24 -26 0
60782 -376 24 0
60782 -376 27 0
60782 376 -24 -27 0
60782 -377 25 0
60782 -377 26 0
60782 377 -25 -26 0
60782 -378 25 0
60782 -378 27 0
60782 378 -25 -27 0
60782 -379 26 0
60782 -379 27 0
60782 379 -26 -27 0
29609 1 0
60772 -1 0
54702 29 0
60772 -29 0
59332 30 0
60772 -30 0
60546 31 0
60772 -31 0
54666 32 0
60772 -32 0
76786 33 0
60772 -33 0
60424 34 0
60772 -34 0
56434 35 0
60772 -35 0
81684 36 0
60772 -36 0
51534 37 0
60772 -37 0
62322 38 0
60772 -38 0
54368 39 0
60772 -39 0
45392 40 0
60772 -40 0
66416 41 0
60772 -41 0
63946 42 0
60772 -42 0
63416 43 0
60772 -43 0
58152 44 0
60772 -44 0
63522 45 0
60772 -45 0
61490 46 0
60772 -46 0
60348 47 0
60772 -47 0
58178 48 0
60772 -48 0
68642 49 0
60772 -49 0
63178 50 0
60772 -50 0
56408 51 0
60772 -51 0
67238 52 0
60772 -52 0
64262 53 0
60772 -53 0
60608 54 0
60772 -54 0
43038 2 0
60772 -2 0
61692 55 0
60772 -55 0
53798 56 0
60772 -56 0
61482 57 0
60772 -57 0
58766 58 0
60772 -58 0
46256 59 0
60772 -59 0
69298 60 0
60772 -60 0
77528 61 0
60772 -61 0
52772 62 0
60772 -62 0
69606 63 0
60772 -63 0
60504 64 0
60772 -64 0
60426 65 0
60772 -65 0
65856 66 0
60772 -66 0
65812 67 0
60772 -67 0
64216 68 0
60772 -68 0
63242 69 0
60772 -69 0
55418 70 0
60772 -70 0
64682 71 0
60772 -71 0
69062 72 0
60772 -72 0
52206 73 0
60772 -73 0
67340 74 0
60772 -74 0
63672 75 0
60772 -75 0
58708 76 0
60772 -76 0
62942 77 0
60772 -77 0
62296 78 0
60772 -78 0
60664 79 0
60772 -79 0
27440 3 0
60772 -3 0
63036 80 0
60772 -80 0
60752 81 0
60772 -81 0
59226 82 0
60772 -82 0
51068 83 0
60772 -83 0
71252 84 0
60772 -84 0
57402 85 0
60772 -85 0
68966 86 0
60772 -86 0
74216 87 0
60772 -87 0
49644 88 0
60772 -88 0
54850 89 0
60772 -89 0
62860 90 0
60772 -90 0
51546 91 0
60772 -91 0
53264 92 0
60772 -92 0
56688 93 0
60772 -93 0
62000 94 0
60772 -94 0
67802 95 0
60772 -95 0
61476 96 0
60772 -96 0
63282 97 0
60772 -97 0
60960 98 0
60772 -98 0
58212 99 0
60772 -99 0
57148 100 0
60772 -100 0
55392 101 0
60772 -101 0
60806 102 0
60772 -102 0
60924 103 0
60772 -103 0
71923 4 0
60772 -4 0
55226 104 0
60772 -104 0
51682 105 0
60772 -105 0
49948 106 0
60772 -106 0
72068 107 0
60772 -107 0
75346 108 0
60772 -108 0
51020 109 0
60772 -109 0
58280 110 0
60772 -110 0
63648 111 0
60772 -111 0
61180 112 0
60772 -112 0
53724 113 0
60772 -113 0
62322 114 0
60772 -114 0
56460 115 0
60772 -115 0
68640 116 0
60772 -116 0
52474 117 0
60772 -117 0
65706 118 0
60772 -118 0
59024 119 0
60772 -119 0
57376 120 0
60772 -120 0
65458 121 0
60772 -121 0
59454 122 0
60772 -122 0
60688 123 0
60772 -123 0
57676 124 0
60772 -124 0
60026 125 0
60772 -125 0
60780 126 0
60772 -126 0
44398 5 0
60772 -5 0
60818 127 0
60772 -127 0
57516 128 0
60772 -128 0
46842 129 0
60772 -129 0
57474 130 0
60772 -130 0
60736 131 0
60772 -131 0
69920 132 0
60772 -132 0
52836 133 0
60772 -133 0
56956 134 0
60772 -134 0
57366 135 0
60772 -135 0
70134 136 0
60772 -136 0
56582 137 0
60772 -137 0
59592 138 0
60772 -138 0
58448 139 0
60772 -139 0
61982 140 0
60772 -140 0
55960 141 0
60772 -141 0
56436 142 0
60772 -142 0
67840 143 0
60772 -143 0
59244 144 0
60772 -144 0
63964 145 0
60772 -145 0
58262 146 0
60772 -146 0
58850 147 0
60772 -147 0
60720 148 0
60772 -148 0
56139 6 0
60772 -6 0
42092 149 0
60772 -149 0
66080 150 0
60772 -150 0
50436 151 0
60772 -151 0
77550 152 0
60772 -152 0
69130 153 0
60772 -153 0
68312 154 0
60772 -154 0
73410 155 0
60772 -155 0
54122 156 0
60772 -156 0
59490 157 0
60772 -157 0
58392 158 0
60772 -158 0
53986 159 0
60772 -159 0
61826 160 0
60772 -160 0
60936 161 0
60772 -161 0
63234 162 0
60772 -162 0
62632 163 0
60772 -163 0
59996 164 0
60772 -164 0
59396 165 0
60772 -165 0
56484 166 0
60772 -166 0
58050 167 0
60772 -167 0
58250 168 0
60772 -168 0
60928 169 0
60772 -169 0
47620 7 0
60772 -7 0
72964 170 0
60772 -170 0
61160 171 0
60772 -171 0
75126 172 0
60772 -172 0
71252 173 0
60772 -173 0
61836 174 0
60772 -174 0
63278 175 0
60772 -175 0
60526 176 0
60772 -176 0
55588 177 0
60772 -177 0
63340 178 0
60772 -178 0
52664 179 0
60772 -179 0
58766 180 0
60772 -180 0
64128 181 0
60772 -181 0
55866 182 0
60772 -182 0
63456 183 0
60772 -183 0
68806 184 0
60772 -184 0
56226 185 0
60772 -185 0
56962 186 0
60772 -186 0
58598 187 0
60772 -187 0
56224 188 0
60772 -188 0
60916 189 0
60772 -189 0
31423 8 0
60772 -8 0
52944 190 0
60772 -190 0
62430 191 0
60772 -191 0
56932 192 0
60772 -192 0
63380 193 0
60772 -193 0
70456 194 0
60772 -194 0
61600 195 0
60772 -195 0
61032 196 0
60772 -196 0
67532 197 0
60772 -197 0
54746 198 0
60772 -198 0
61546 199 0
60772 -199 0
59466 200 0
60772 -200 0
54260 201 0
60772 -201 0
69832 202 0
60772 -202 0
56134 203 0
60772 -203 0
61790 204 0
60772 -204 0
59054 205 0
60772 -205 0
67258 206 0
60772 -206 0
63404 207 0
60772 -207 0
60716 208 0
60772 -208 0
30174 9 0
60772 -9 0
77638 209 0
60772 -209 0
58628 210 0
60772 -210 0
62198 211 0
60772 -211 0
73922 212 0
60772 -212 0
57746 213 0
60772 -213 0
58730 214 0
60772 -214 0
61900 215 0
60772 -215 0
52914 216 0
60772 -216 0
66700 217 0
60772 -217 0
59166 218 0
60772 -218 0
59986 219 0
60772 -219 0
67366 220 0
60772 -220 0
50080 221 0
60772 -221 0
59664 222 0
60772 -222 0
61594 223 0
60772 -223 0
55378 224 0
60772 -224 0
57964 225 0
60772 -225 0
60964 226 0
60772 -226 0
51511 10 0
60772 -10 0
47856 227 0
60772 -227 0
63700 228 0
60772 -228 0
60268 229 0
60772 -229 0
55502 230 0
60772 -230 0
67284 231 0
60772 -231 0
66006 232 0
60772 -232 0
74074 233 0
60772 -233 0
51572 234 0
60772 -234 0
59830 235 0
60772 -235 0
60354 236 0
60772 -236 0
59088 237 0
60772 -237 0
55508 238 0
60772 -238 0
62964 239 0
60772 -239 0
64940 240 0
60772 -240 0
62608 241 0
60772 -241 0
64648 242 0
60772 -242 0
60636 243 0
60772 -243 0
48283 11 0
60772 -11 0
67514 244 0
60772 -244 0
63716 245 0
60772 -245 0
60476 246 0
60772 -246 0
61162 247 0
60772 -247 0
68846 248 0
60772 -248 0
69582 249 0
60772 -249 0
63658 250 0
60772 -250 0
63510 251 0
60772 -251 0
54294 252 0
60772 -252 0
62490 253 0
60772 -253 0
56358 254 0
60772 -254 0
63494 255 0
60772 -255 0
66516 256 0
60772 -256 0
62758 257 0
60772 -257 0
62098 258 0
60772 -258 0
60632 259 0
60772 -259 0
49718 12 0
60772 -12 0
43900 260 0
60772 -260 0
69660 261 0
60772 -261 0
54838 262 0
60772 -262 0
53450 263 0
60772 -263 0
59798 264 0
60772 -264 0
55510 265 0
60772 -265 0
58510 266 0
60772 -266 0
62432 267 0
60772 -267 0
58356 268 0
60772 -268 0
62836 269 0
60772 -269 0
57500 270 0
60772 -270 0
63894 271 0
60772 -271 0
55902 272 0
60772 -272 0
58042 273 0
60772 -273 0
60860 274 0
60772 -274 0
42892 13 0
60772 -13 0
73286 275 0
60772 -275 0
60378 276 0
60772 -276 0
55770 277 0
60772 -277 0
56530 278 0
60772 -278 0
61252 279 0
60772 -279 0
61140 280 0
60772 -280 0
62584 281 0
60772 -281 0
53604 282 0
60772 -282 0
69268 283 0
60772 -283 0
60412 284 0
60772 -284 0
62990 285 0
60772 -285 0
58730 286 0
60772 -286 0
58662 287 0
60772 -287 0
60724 288 0
60772 -288 0
54560 14 0
60772 -14 0
60436 289 0
60772 -289 0
57460 290 0
60772 -290 0
61828 291 0
60772 -291 0
54830 292 0
60772 -292 0
62584 293 0
60772 -293 0
62566 294 0
60772 -294 0
65516 295 0
60772 -295 0
52320 296 0
60772 -296 0
59968 297 0
60772 -297 0
56628 298 0
60772 -298 0
57424 299 0
60772 -299 0
62064 300 0
60772 -300 0
60924 301 0
60772 -301 0
49009 15 0
60772 -15 0
60012 302 0
60772 -302 0
63376 303 0
60772 -303 0
60182 304 0
60772 -304 0
59260 305 0
60772 -305 0
58098 306 0
60772 -306 0
71878 307 0
60772 -307 0
56246 308 0
60772 -308 0
56062 309 0
60772 -309 0
57222 310 0
60772 -310 0
61760 311 0
60772 -311 0
61864 312 0
60772 -312 0
60944 313 0
60772 -313 0
60099 16 0
60772 -16 0
61854 314 0
60772 -314 0
57046 315 0
60772 -315 0
58364 316 0
60772 -316 0
65696 317 0
60772 -317 0
57996 318 0
60772 -318 0
60038 319 0
60772 -319 0
58886 320 0
60772 -320 0
61212 321 0
60772 -321 0
55590 322 0
60772 -322 0
59396 323 0
60772 -323 0
60880 324 0
60772 -324 0
45138 17 0
60772 -17 0
60978 325 0
60772 -325 0
58316 326 0
60772 -326 0
62016 327 0
60772 -327 0
65398 328 0
60772 -328 0
58646 329 0
60772 -329 0
59130 330 0
60772 -330 0
54960 331 0
60772 -331 0
58374 332 0
60772 -332 0
57406 333 0
60772 -333 0
60968 334 0
60772 -334 0
61471 18 0
60772 -18 0
60760 335 0
60772 -335 0
63914 336 0
60772 -336 0
61712 337 0
60772 -337 0
56576 338 0
60772 -338 0
57960 339 0
60772 -339 0
60144 340 0
60772 -340 0
55222 341 0
60772 -341 0
58978 342 0
60772 -342 0
60944 343 0
60772 -343 0
64668 19 0
60772 -19 0
60658 344 0
60772 -344 0
64726 345 0
60772 -345 0
55306 346 0
60772 -346 0
58010 347 0
60772 -347 0
63356 348 0
60772 -348 0
63280 349 0
60772 -349 0
59620 350 0
60772 -350 0
60828 351 0
60772 -351 0
53807 20 0
60772 -20 0
67514 352 0
60772 -352 0
66724 353 0
60772 -353 0
56184 354 0
60772 -354 0
65444 355 0
60772 -355 0
62436 356 0
60772 -356 0
58218 357 0
60772 -357 0
60724 358 0
60772 -358 0
53445 21 0
60772 -21 0
67840 359 0
60772 -359 0
64956 360 0
60772 -360 0
64426 361 0
60772 -361 0
59694 362 0
60772 -362 0
60756 363 0
60772 -363 0
60596 364 0
60772 -364 0
53243 22 0
60772 -22 0
61034 365 0
60772 -365 0
59036 366 0
60772 -366 0
58492 367 0
60772 -367 0
62194 368 0
60772 -368 0
60948 369 0
60772 -369 0
62795 23 0
60772 -23 0
61016 370 0
60772 -370 0
58516 371 0
60772 -371 0
58314 372 0
60772 -372 0
60892 373 0
60772 -373 0
53766 24 0
60772 -24 0
61814 374 0
60772 -374 0
62652 375 0
60772 -375 0
60880 376 0
60772 -376 0
57125 25 0
60772 -25 0
57168 377 0
60772 -377 0
60940 378 0
60772 -378 0
60935 26 0
60772 -26 0
60852 379 0
60772 -379 0
60708 27 0
60772 -27 0
